Route #1: 47 41 3 50 31 54 22 5 12 4 21 17 
Route #2: 15 48 25 45 29 32 
Route #3: 42 34 39 8 30 14 
Route #4: 19 51 44 57 13 52 10 33 
Route #5: 20 9 58 38 18 28 27 16 
Route #6: 26 7 35 24 40 56 36 
Route #7: 2 37 11 23 49 
Route #8: 59 43 46 6 55 
Route #9: 53 60 
cost 1439.74
